;symbolic execution tree
(push)
(assert (le x0 java.lang.Object))
(check-sat)
(push)
(assert (le x1 java.lang.Object))
(check-sat)
(push)
(assert (le x2 java.lang.Object))
(check-sat)
(push)
(assert (le x3 java.lang.Object))
(check-sat)
(push)
(assert (le x2 java.util.Vector))
(check-sat)
(push)
(assert (= x3 java.lang.String))
(check-sat)
(pop)
(push)
(assert (not (= x3 java.lang.String)))
(check-sat)
(push)
(assert (= x1 java.lang.String))
(check-sat)
(push)
(assert (= x3 java.lang.String))
(check-sat)
(pop)
(push)
(assert (not (= x3 java.lang.String)))
(check-sat)
(pop)
(pop)
(push)
(assert (not (= x1 java.lang.String)))
(check-sat)
(pop)
(push)
(assert (le x2 java.util.Vector))
(check-sat)
(push)
(assert (= x1 java.lang.String))
(check-sat)
(pop)
(push)
(assert (not (= x1 java.lang.String)))
(check-sat)
(pop)
(pop)
(push)
(assert (not (le x2 java.util.Vector)))
(check-sat)
(pop)
(push)
(assert (= x1 java.lang.String))
(check-sat)
(pop)
(push)
(assert (not (= x1 java.lang.String)))
(check-sat)
(push)
(assert (= x1 java.lang.String))
(check-sat)
(pop)
(push)
(assert (not (= x1 java.lang.String)))
(check-sat)
(pop)
(pop)
(push)
(assert (le x0 weka.core.AttributeLocator))
(check-sat)
(pop)
(push)
(assert (not (le x0 weka.core.AttributeLocator)))
(check-sat)
(pop)
(push)
(assert (le x2 java.util.Vector))
(check-sat)
(pop)
(push)
(assert (not (le x2 java.util.Vector)))
(check-sat)
(pop)
(pop)
(push)
(assert (le x3 weka.core.FastVector))
(check-sat)
(push)
(assert (le x3 weka.core.FastVector))
(check-sat)
(pop)
(push)
(assert (not (le x3 weka.core.FastVector)))
(check-sat)
(pop)
(push)
(assert (= x1 java.lang.String))
(check-sat)
(pop)
(push)
(assert (not (= x1 java.lang.String)))
(check-sat)
(pop)
(push)
(assert (le x1 weka.core.Instance))
(check-sat)
(pop)
(push)
(assert (not (le x1 weka.core.Instance)))
(check-sat)
(push)
(assert (le x2 java.util.Vector))
(check-sat)
(pop)
(push)
(assert (not (le x2 java.util.Vector)))
(check-sat)
(pop)
(push)
(assert (le x3 weka.core.FastVector))
(check-sat)
(pop)
(push)
(assert (not (le x3 weka.core.FastVector)))
(check-sat)
(pop)
(push)
(assert (le x1 weka.core.Instance))
(check-sat)
(pop)
(push)
(assert (not (le x1 weka.core.Instance)))
(check-sat)
(push)
(assert (le x2 java.util.Vector))
(check-sat)
(pop)
(push)
(assert (not (le x2 java.util.Vector)))
(check-sat)
(pop)
(pop)
(pop)
(pop)
(push)
(assert (not (le x3 weka.core.FastVector)))
(check-sat)
(push)
(assert (le x2 java.util.Vector))
(check-sat)
(pop)
(push)
(assert (not (le x2 java.util.Vector)))
(check-sat)
(pop)
(push)
(assert (le x2 java.util.Vector))
(check-sat)
(pop)
(push)
(assert (not (le x2 java.util.Vector)))
(check-sat)
(pop)
(push)
(assert (le x3 weka.core.FastVector))
(check-sat)
(pop)
(push)
(assert (not (le x3 weka.core.FastVector)))
(check-sat)
(pop)
(pop)
(push)
(assert (le x2 java.util.Vector))
(check-sat)
(pop)
(push)
(assert (not (le x2 java.util.Vector)))
(check-sat)
(pop)
(push)
(assert (le x2 java.util.Vector))
(check-sat)
(push)
(assert (le x1 weka.core.Instance))
(check-sat)
(pop)
(push)
(assert (not (le x1 weka.core.Instance)))
(check-sat)
(pop)
(pop)
(push)
(assert (not (le x2 java.util.Vector)))
(check-sat)
(pop)
(push)
(assert (le x3 java.util.Vector))
(check-sat)
(pop)
(push)
(assert (not (le x3 java.util.Vector)))
(check-sat)
(push)
(assert (le x3 java.util.Vector))
(check-sat)
(pop)
(push)
(assert (not (le x3 java.util.Vector)))
(check-sat)
(pop)
(push)
(assert (= x1 java.lang.Integer))
(check-sat)
(push)
(assert (le x0 weka.core.Instance))
(check-sat)
(push)
(assert (le x3 java.util.Vector))
(check-sat)
(pop)
(push)
(assert (not (le x3 java.util.Vector)))
(check-sat)
(pop)
(pop)
(push)
(assert (not (le x0 weka.core.Instance)))
(check-sat)
(pop)
(pop)
(push)
(assert (not (= x1 java.lang.Integer)))
(check-sat)
(push)
(assert (le x2 java.util.Vector))
(check-sat)
(pop)
(push)
(assert (not (le x2 java.util.Vector)))
(check-sat)
(pop)
(pop)
(pop)
(push)
(assert (= x0 java.lang.String))
(check-sat)
(pop)
(push)
(assert (not (= x0 java.lang.String)))
(check-sat)
(push)
(assert (= x0 java.lang.String))
(check-sat)
(pop)
(push)
(assert (not (= x0 java.lang.String)))
(check-sat)
(pop)
(push)
(assert (= x0 java.lang.String))
(check-sat)
(pop)
(push)
(assert (not (= x0 java.lang.String)))
(check-sat)
(pop)
(pop)
(push)
(assert (= x1 java.lang.Boolean))
(check-sat)
(push)
(assert (le x0 weka.core.AttributeLocator))
(check-sat)
(push)
(assert (le x0 weka.core.AttributeLocator))
(check-sat)
(pop)
(push)
(assert (not (le x0 weka.core.AttributeLocator)))
(check-sat)
(pop)
(pop)
(push)
(assert (not (le x0 weka.core.AttributeLocator)))
(check-sat)
(push)
(assert (= x1 java.lang.Boolean))
(check-sat)
(push)
(assert (le x0 weka.core.AttributeLocator))
(check-sat)
(pop)
(push)
(assert (not (le x0 weka.core.AttributeLocator)))
(check-sat)
(pop)
(pop)
(push)
(assert (not (= x1 java.lang.Boolean)))
(check-sat)
(pop)
(push)
(assert (le x3 java.util.Vector))
(check-sat)
(pop)
(push)
(assert (not (le x3 java.util.Vector)))
(check-sat)
(push)
(assert (le x0 weka.core.AttributeLocator))
(check-sat)
(pop)
(push)
(assert (not (le x0 weka.core.AttributeLocator)))
(check-sat)
(pop)
(push)
(assert (le x2 java.util.Vector))
(check-sat)
(pop)
(push)
(assert (not (le x2 java.util.Vector)))
(check-sat)
(pop)
(pop)
(push)
(assert (le x2 java.util.Vector))
(check-sat)
(pop)
(push)
(assert (not (le x2 java.util.Vector)))
(check-sat)
(pop)
(push)
(assert (le x2 java.util.Vector))
(check-sat)
(push)
(assert (le x3 weka.core.Instance))
(check-sat)
(pop)
(push)
(assert (not (le x3 weka.core.Instance)))
(check-sat)
(pop)
(pop)
(push)
(assert (not (le x2 java.util.Vector)))
(check-sat)
(pop)
(pop)
(pop)
(push)
(assert (not (= x1 java.lang.Boolean)))
(check-sat)
(push)
(assert (= x0 java.lang.Boolean))
(check-sat)
(push)
(assert (= x1 java.lang.Boolean))
(check-sat)
(pop)
(push)
(assert (not (= x1 java.lang.Boolean)))
(check-sat)
(push)
(assert (le x2 java.util.Vector))
(check-sat)
(pop)
(push)
(assert (not (le x2 java.util.Vector)))
(check-sat)
(pop)
(push)
(assert (= x0 java.lang.Boolean))
(check-sat)
(pop)
(push)
(assert (not (= x0 java.lang.Boolean)))
(check-sat)
(pop)
(pop)
(pop)
(push)
(assert (not (= x0 java.lang.Boolean)))
(check-sat)
(pop)
(push)
(assert (le x2 java.util.Vector))
(check-sat)
(push)
(assert (le x2 java.util.Vector))
(check-sat)
(pop)
(push)
(assert (not (le x2 java.util.Vector)))
(check-sat)
(pop)
(push)
(assert (le x2 java.util.Vector))
(check-sat)
(push)
(assert (= x0 java.lang.Boolean))
(check-sat)
(pop)
(push)
(assert (not (= x0 java.lang.Boolean)))
(check-sat)
(pop)
(pop)
(push)
(assert (not (le x2 java.util.Vector)))
(check-sat)
(pop)
(pop)
(push)
(assert (not (le x2 java.util.Vector)))
(check-sat)
(pop)
(pop)
(push)
(assert (le x3 java.util.Vector))
(check-sat)
(pop)
(push)
(assert (not (le x3 java.util.Vector)))
(check-sat)
(push)
(assert (le x3 java.util.Vector))
(check-sat)
(pop)
(push)
(assert (not (le x3 java.util.Vector)))
(check-sat)
(pop)
(pop)
(push)
(assert (le x0 weka.core.Instance))
(check-sat)
(push)
(assert (= x3 java.lang.String))
(check-sat)
(pop)
(push)
(assert (not (= x3 java.lang.String)))
(check-sat)
(pop)
(push)
(assert (le x1 weka.core.Instances))
(check-sat)
(pop)
(push)
(assert (not (le x1 weka.core.Instances)))
(check-sat)
(pop)
(push)
(assert (le x1 weka.core.Instances))
(check-sat)
(push)
(assert (le x1 weka.core.Instances))
(check-sat)
(pop)
(push)
(assert (not (le x1 weka.core.Instances)))
(check-sat)
(pop)
(pop)
(push)
(assert (not (le x1 weka.core.Instances)))
(check-sat)
(push)
(assert (le x1 weka.core.Instances))
(check-sat)
(pop)
(push)
(assert (not (le x1 weka.core.Instances)))
(check-sat)
(push)
(assert (le x0 weka.core.Instance))
(check-sat)
(pop)
(push)
(assert (not (le x0 weka.core.Instance)))
(check-sat)
(pop)
(pop)
(push)
(assert (le x2 java.util.Vector))
(check-sat)
(pop)
(push)
(assert (not (le x2 java.util.Vector)))
(check-sat)
(pop)
(push)
(assert (= x3 java.lang.String))
(check-sat)
(pop)
(push)
(assert (not (= x3 java.lang.String)))
(check-sat)
(pop)
(pop)
(push)
(assert (le x2 java.util.Vector))
(check-sat)
(pop)
(push)
(assert (not (le x2 java.util.Vector)))
(check-sat)
(pop)
(push)
(assert (le x0 weka.core.Instance))
(check-sat)
(pop)
(push)
(assert (not (le x0 weka.core.Instance)))
(check-sat)
(pop)
(push)
(assert (le x3 weka.core.Instances))
(check-sat)
(pop)
(push)
(assert (not (le x3 weka.core.Instances)))
(check-sat)
(push)
(assert (le x0 weka.core.Instance))
(check-sat)
(pop)
(push)
(assert (not (le x0 weka.core.Instance)))
(check-sat)
(pop)
(push)
(assert (le x3 weka.core.Instances))
(check-sat)
(pop)
(push)
(assert (not (le x3 weka.core.Instances)))
(check-sat)
(pop)
(push)
(assert (le x2 java.util.Vector))
(check-sat)
(pop)
(push)
(assert (not (le x2 java.util.Vector)))
(check-sat)
(pop)
(pop)
(push)
(assert (le x3 weka.core.FastVector))
(check-sat)
(push)
(assert (le x2 java.util.Vector))
(check-sat)
(push)
(assert (le x2 java.util.Vector))
(check-sat)
(pop)
(push)
(assert (not (le x2 java.util.Vector)))
(check-sat)
(pop)
(pop)
(push)
(assert (not (le x2 java.util.Vector)))
(check-sat)
(pop)
(push)
(assert (= x1 java.lang.Double))
(check-sat)
(pop)
(push)
(assert (not (= x1 java.lang.Double)))
(check-sat)
(pop)
(pop)
(push)
(assert (not (le x3 weka.core.FastVector)))
(check-sat)
(push)
(assert (le x0 weka.core.Instance))
(check-sat)
(push)
(assert (le x3 weka.core.FastVector))
(check-sat)
(pop)
(push)
(assert (not (le x3 weka.core.FastVector)))
(check-sat)
(pop)
(pop)
(push)
(assert (not (le x0 weka.core.Instance)))
(check-sat)
(pop)
(push)
(assert (le x3 weka.core.FastVector))
(check-sat)
(pop)
(push)
(assert (not (le x3 weka.core.FastVector)))
(check-sat)
(pop)
(push)
(assert (le x3 weka.core.FastVector))
(check-sat)
(pop)
(push)
(assert (not (le x3 weka.core.FastVector)))
(check-sat)
(pop)
(push)
(assert (le x2 java.util.Vector))
(check-sat)
(pop)
(push)
(assert (not (le x2 java.util.Vector)))
(check-sat)
(pop)
(pop)
(push)
(assert (le x0 weka.core.Instance))
(check-sat)
(push)
(assert (le x3 weka.core.Instances))
(check-sat)
(push)
(assert (le x2 java.util.Vector))
(check-sat)
(pop)
(push)
(assert (not (le x2 java.util.Vector)))
(check-sat)
(pop)
(push)
(assert (le x2 java.util.Vector))
(check-sat)
(pop)
(push)
(assert (not (le x2 java.util.Vector)))
(check-sat)
(pop)
(pop)
(push)
(assert (not (le x3 weka.core.Instances)))
(check-sat)
(push)
(assert (le x1 weka.core.Instances))
(check-sat)
(pop)
(push)
(assert (not (le x1 weka.core.Instances)))
(check-sat)
(pop)
(pop)
(push)
(assert (le x1 weka.core.Instances))
(check-sat)
(push)
(assert (le x1 weka.core.Instances))
(check-sat)
(pop)
(push)
(assert (not (le x1 weka.core.Instances)))
(check-sat)
(pop)
(pop)
(push)
(assert (not (le x1 weka.core.Instances)))
(check-sat)
(pop)
(push)
(assert (le x1 weka.core.Instance))
(check-sat)
(pop)
(push)
(assert (not (le x1 weka.core.Instance)))
(check-sat)
(pop)
(pop)
(push)
(assert (not (le x0 weka.core.Instance)))
(check-sat)
(pop)
(pop)
(push)
(assert (not (le x0 weka.core.Instance)))
(check-sat)
(push)
(assert (le x2 java.util.Vector))
(check-sat)
(push)
(assert (le x0 weka.core.Instance))
(check-sat)
(pop)
(push)
(assert (not (le x0 weka.core.Instance)))
(check-sat)
(pop)
(push)
(assert (le x2 java.util.Vector))
(check-sat)
(push)
(assert (le x3 weka.core.Instance))
(check-sat)
(pop)
(push)
(assert (not (le x3 weka.core.Instance)))
(check-sat)
(pop)
(pop)
(push)
(assert (not (le x2 java.util.Vector)))
(check-sat)
(pop)
(pop)
(push)
(assert (not (le x2 java.util.Vector)))
(check-sat)
(pop)
(push)
(assert (le x1 weka.core.Instance))
(check-sat)
(push)
(assert (le x3 weka.core.Instances))
(check-sat)
(pop)
(push)
(assert (not (le x3 weka.core.Instances)))
(check-sat)
(push)
(assert (le x2 java.util.Vector))
(check-sat)
(pop)
(push)
(assert (not (le x2 java.util.Vector)))
(check-sat)
(pop)
(pop)
(push)
(assert (le x0 weka.core.Instance))
(check-sat)
(pop)
(push)
(assert (not (le x0 weka.core.Instance)))
(check-sat)
(pop)
(pop)
(push)
(assert (not (le x1 weka.core.Instance)))
(check-sat)
(pop)
(push)
(assert (le x2 java.util.Vector))
(check-sat)
(pop)
(push)
(assert (not (le x2 java.util.Vector)))
(check-sat)
(pop)
(push)
(assert (le x2 java.util.Vector))
(check-sat)
(push)
(assert (le x1 weka.core.Instance))
(check-sat)
(pop)
(push)
(assert (not (le x1 weka.core.Instance)))
(check-sat)
(pop)
(pop)
(push)
(assert (not (le x2 java.util.Vector)))
(check-sat)
(pop)
(pop)
(pop)
(push)
(assert (not (le x2 java.util.Vector)))
(check-sat)
(push)
(assert (le x1 java.util.Vector))
(check-sat)
(push)
(assert (le x3 weka.core.Instance))
(check-sat)
(pop)
(push)
(assert (not (le x3 weka.core.Instance)))
(check-sat)
(pop)
(pop)
(push)
(assert (not (le x1 java.util.Vector)))
(check-sat)
(pop)
(push)
(assert (= x1 java.lang.Boolean))
(check-sat)
(push)
(assert (le x2 java.util.Vector))
(check-sat)
(pop)
(push)
(assert (not (le x2 java.util.Vector)))
(check-sat)
(pop)
(push)
(assert (= x1 java.lang.Boolean))
(check-sat)
(pop)
(push)
(assert (not (= x1 java.lang.Boolean)))
(check-sat)
(pop)
(push)
(assert (= x1 java.lang.Boolean))
(check-sat)
(pop)
(push)
(assert (not (= x1 java.lang.Boolean)))
(check-sat)
(pop)
(push)
(assert (le x0 weka.core.Instances))
(check-sat)
(pop)
(push)
(assert (not (le x0 weka.core.Instances)))
(check-sat)
(pop)
(push)
(assert (le x0 java.util.Vector))
(check-sat)
(push)
(assert (= x1 java.lang.Boolean))
(check-sat)
(pop)
(push)
(assert (not (= x1 java.lang.Boolean)))
(check-sat)
(pop)
(pop)
(push)
(assert (not (le x0 java.util.Vector)))
(check-sat)
(pop)
(push)
(assert (le x2 java.util.Vector))
(check-sat)
(pop)
(push)
(assert (not (le x2 java.util.Vector)))
(check-sat)
(push)
(assert (= x1 java.lang.Boolean))
(check-sat)
(pop)
(push)
(assert (not (= x1 java.lang.Boolean)))
(check-sat)
(pop)
(push)
(assert (le x2 java.util.Vector))
(check-sat)
(pop)
(push)
(assert (not (le x2 java.util.Vector)))
(check-sat)
(push)
(assert (le x3 weka.core.Instance))
(check-sat)
(pop)
(push)
(assert (not (le x3 weka.core.Instance)))
(check-sat)
(pop)
(pop)
(push)
(assert (= x1 java.lang.Boolean))
(check-sat)
(push)
(assert (le x2 java.util.Vector))
(check-sat)
(pop)
(push)
(assert (not (le x2 java.util.Vector)))
(check-sat)
(pop)
(push)
(assert (= x1 java.lang.Boolean))
(check-sat)
(pop)
(push)
(assert (not (= x1 java.lang.Boolean)))
(check-sat)
(pop)
(pop)
(push)
(assert (not (= x1 java.lang.Boolean)))
(check-sat)
(pop)
(pop)
(push)
(assert (= x0 java.lang.String))
(check-sat)
(push)
(assert (le x2 java.util.Vector))
(check-sat)
(pop)
(push)
(assert (not (le x2 java.util.Vector)))
(check-sat)
(pop)
(push)
(assert (le x2 java.util.Vector))
(check-sat)
(pop)
(push)
(assert (not (le x2 java.util.Vector)))
(check-sat)
(pop)
(pop)
(push)
(assert (not (= x0 java.lang.String)))
(check-sat)
(push)
(assert (le x2 java.util.Vector))
(check-sat)
(pop)
(push)
(assert (not (le x2 java.util.Vector)))
(check-sat)
(pop)
(push)
(assert (= x1 java.lang.Boolean))
(check-sat)
(pop)
(push)
(assert (not (= x1 java.lang.Boolean)))
(check-sat)
(pop)
(push)
(assert (= x0 java.lang.String))
(check-sat)
(pop)
(push)
(assert (not (= x0 java.lang.String)))
(check-sat)
(pop)
(pop)
(push)
(assert (le x2 java.util.Vector))
(check-sat)
(pop)
(push)
(assert (not (le x2 java.util.Vector)))
(check-sat)
(pop)
(push)
(assert (= x0 java.lang.Boolean))
(check-sat)
(pop)
(push)
(assert (not (= x0 java.lang.Boolean)))
(check-sat)
(pop)
(push)
(assert (le x0 java.io.BufferedReader))
(check-sat)
(pop)
(push)
(assert (not (le x0 java.io.BufferedReader)))
(check-sat)
(pop)
(push)
(assert (= x0 java.lang.Boolean))
(check-sat)
(pop)
(push)
(assert (not (= x0 java.lang.Boolean)))
(check-sat)
(push)
(assert (= x0 java.lang.Boolean))
(check-sat)
(pop)
(push)
(assert (not (= x0 java.lang.Boolean)))
(check-sat)
(pop)
(pop)
(push)
(assert (le x2 java.util.Vector))
(check-sat)
(pop)
(push)
(assert (not (le x2 java.util.Vector)))
(check-sat)
(pop)
(pop)
(push)
(assert (not (= x1 java.lang.Boolean)))
(check-sat)
(pop)
(pop)
